NAME : pr439.134246.tour
COMMENT : Cost = 26890_134246
COMMENT : Found by LKH [Keld Helsgaun] Thu Nov 16 17:46:25 2017
TYPE : TOUR
DIMENSION : 443
TOUR_SECTION
1
3
49
47
48
55
56
82
189
232
286
287
288
289
290
291
292
293
359
357
358
356
355
354
352
353
351
350
349
347
348
346
345
376
377
379
380
390
389
419
420
421
414
406
407
396
397
398
393
395
394
384
382
383
372
371
373
341
342
343
344
284
283
228
229
282
281
230
187
53
51
52
442
5
11
12
37
36
35
34
33
62
63
73
64
65
66
67
68
69
70
71
72
88
89
90
91
102
92
93
94
100
101
122
123
125
124
126
127
129
134
135
136
137
138
139
140
141
142
152
153
154
155
156
157
158
159
177
178
179
180
181
182
183
192
193
194
195
196
197
198
199
200
201
202
203
205
206
207
208
171
172
173
174
204
176
175
161
160
162
163
164
165
166
169
170
168
167
133
132
131
130
128
99
98
97
96
95
18
19
20
21
22
24
23
25
26
27
28
29
30
31
32
17
16
15
14
13
10
9
8
7
6
4
440
2
50
54
188
225
231
280
285
340
374
375
381
391
392
399
413
412
423
422
432
433
430
427
424
426
425
410
411
409
408
403
434
438
437
436
435
439
227
226
186
149
85
84
83
441
45
39
57
78
77
87
110
111
112
146
144
147
148
145
185
190
224
223
233
234
235
236
237
238
239
240
241
242
243
244
245
246
247
248
249
256
257
258
259
260
261
262
263
264
265
266
267
268
269
270
271
272
300
299
298
297
296
295
338
337
336
335
334
333
332
304
305
306
307
308
309
310
311
312
313
314
315
316
254
255
252
253
209
251
250
210
211
212
213
214
215
216
217
218
219
220
221
222
191
184
150
151
143
113
114
116
118
119
121
120
117
115
103
104
105
106
107
108
109
74
75
76
61
60
59
58
38
40
41
43
443
44
81
80
79
294
339
360
370
361
362
363
364
365
366
367
368
369
378
385
386
387
388
401
400
415
416
431
429
428
418
417
405
404
402
317
318
319
320
321
322
323
324
325
326
327
328
329
331
330
303
302
301
273
274
275
276
277
278
279
86
42
46
-1
EOF
